c description: Tseitin formula on Random 4-regular graph of 28 vertices, with odd charge
c generator: CNFgen (0.9.2)
c copyright: (C) 2012-2022 Massimo Lauria <massimo.lauria@uniroma1.it>
c url: https://massimolauria.net/cnfgen
c command line: cnfgen tseitin 28
c
p cnf 56 224
1 2 3 -4 0
1 2 -3 4 0
1 -2 3 4 0
1 -2 -3 -4 0
-1 2 3 4 0
-1 2 -3 -4 0
-1 -2 3 -4 0
-1 -2 -3 4 0
5 6 7 8 0
5 6 -7 -8 0
5 -6 7 -8 0
5 -6 -7 8 0
-5 6 7 -8 0
-5 6 -7 8 0
-5 -6 7 8 0
-5 -6 -7 -8 0
9 10 11 12 0
9 10 -11 -12 0
9 -10 11 -12 0
9 -10 -11 12 0
-9 10 11 -12 0
-9 10 -11 12 0
-9 -10 11 12 0
-9 -10 -11 -12 0
1 13 14 15 0
1 13 -14 -15 0
1 -13 14 -15 0
1 -13 -14 15 0
-1 13 14 -15 0
-1 13 -14 15 0
-1 -13 14 15 0
-1 -13 -14 -15 0
16 17 18 19 0
16 17 -18 -19 0
16 -17 18 -19 0
16 -17 -18 19 0
-16 17 18 -19 0
-16 17 -18 19 0
-16 -17 18 19 0
-16 -17 -18 -19 0
16 20 21 22 0
16 20 -21 -22 0
16 -20 21 -22 0
16 -20 -21 22 0
-16 20 21 -22 0
-16 20 -21 22 0
-16 -20 21 22 0
-16 -20 -21 -22 0
13 23 24 25 0
13 23 -24 -25 0
13 -23 24 -25 0
13 -23 -24 25 0
-13 23 24 -25 0
-13 23 -24 25 0
-13 -23 24 25 0
-13 -23 -24 -25 0
5 26 27 28 0
5 26 -27 -28 0
5 -26 27 -28 0
5 -26 -27 28 0
-5 26 27 -28 0
-5 26 -27 28 0
-5 -26 27 28 0
-5 -26 -27 -28 0
6 29 30 -31 0
6 29 -30 31 0
6 -29 30 31 0
6 -29 -30 -31 0
-6 29 30 31 0
-6 29 -30 -31 0
-6 -29 30 -31 0
-6 -29 -30 31 0
26 32 33 -34 0
26 32 -33 34 0
26 -32 33 34 0
26 -32 -33 -34 0
-26 32 33 34 0
-26 32 -33 -34 0
-26 -32 33 -34 0
-26 -32 -33 34 0
17 20 35 -36 0
17 20 -35 36 0
17 -20 35 36 0
17 -20 -35 -36 0
-17 20 35 36 0
-17 20 -35 -36 0
-17 -20 35 -36 0
-17 -20 -35 36 0
2 32 37 -38 0
2 32 -37 38 0
2 -32 37 38 0
2 -32 -37 -38 0
-2 32 37 38 0
-2 32 -37 -38 0
-2 -32 37 -38 0
-2 -32 -37 38 0
33 37 39 -40 0
33 37 -39 40 0
33 -37 39 40 0
33 -37 -39 -40 0
-33 37 39 40 0
-33 37 -39 -40 0
-33 -37 39 -40 0
-33 -37 -39 40 0
3 7 9 -41 0
3 7 -9 41 0
3 -7 9 41 0
3 -7 -9 -41 0
-3 7 9 41 0
-3 7 -9 -41 0
-3 -7 9 -41 0
-3 -7 -9 41 0
14 23 42 -43 0
14 23 -42 43 0
14 -23 42 43 0
14 -23 -42 -43 0
-14 23 42 43 0
-14 23 -42 -43 0
-14 -23 42 -43 0
-14 -23 -42 43 0
15 29 44 45 0
15 29 -44 -45 0
15 -29 44 -45 0
15 -29 -44 45 0
-15 29 44 -45 0
-15 29 -44 45 0
-15 -29 44 45 0
-15 -29 -44 -45 0
42 46 47 -48 0
42 46 -47 48 0
42 -46 47 48 0
42 -46 -47 -48 0
-42 46 47 48 0
-42 46 -47 -48 0
-42 -46 47 -48 0
-42 -46 -47 48 0
21 35 49 50 0
21 35 -49 -50 0
21 -35 49 -50 0
21 -35 -49 50 0
-21 35 49 -50 0
-21 35 -49 50 0
-21 -35 49 50 0
-21 -35 -49 -50 0
8 30 46 -51 0
8 30 -46 51 0
8 -30 46 51 0
8 -30 -46 -51 0
-8 30 46 51 0
-8 30 -46 -51 0
-8 -30 46 -51 0
-8 -30 -46 51 0
31 44 49 -52 0
31 44 -49 52 0
31 -44 49 52 0
31 -44 -49 -52 0
-31 44 49 52 0
-31 44 -49 -52 0
-31 -44 49 -52 0
-31 -44 -49 52 0
4 10 27 -53 0
4 10 -27 53 0
4 -10 27 53 0
4 -10 -27 -53 0
-4 10 27 53 0
-4 10 -27 -53 0
-4 -10 27 -53 0
-4 -10 -27 53 0
22 47 54 55 0
22 47 -54 -55 0
22 -47 54 -55 0
22 -47 -54 55 0
-22 47 54 -55 0
-22 47 -54 55 0
-22 -47 54 55 0
-22 -47 -54 -55 0
28 36 53 -54 0
28 36 -53 54 0
28 -36 53 54 0
28 -36 -53 -54 0
-28 36 53 54 0
-28 36 -53 -54 0
-28 -36 53 -54 0
-28 -36 -53 54 0
11 18 39 -43 0
11 18 -39 43 0
11 -18 39 43 0
11 -18 -39 -43 0
-11 18 39 43 0
-11 18 -39 -43 0
-11 -18 39 -43 0
-11 -18 -39 43 0
24 48 50 55 0
24 48 -50 -55 0
24 -48 50 -55 0
24 -48 -50 55 0
-24 48 50 -55 0
-24 48 -50 55 0
-24 -48 50 55 0
-24 -48 -50 -55 0
40 45 52 56 0
40 45 -52 -56 0
40 -45 52 -56 0
40 -45 -52 56 0
-40 45 52 -56 0
-40 45 -52 56 0
-40 -45 52 56 0
-40 -45 -52 -56 0
25 34 41 51 0
25 34 -41 -51 0
25 -34 41 -51 0
25 -34 -41 51 0
-25 34 41 -51 0
-25 34 -41 51 0
-25 -34 41 51 0
-25 -34 -41 -51 0
12 19 38 -56 0
12 19 -38 56 0
12 -19 38 56 0
12 -19 -38 -56 0
-12 19 38 56 0
-12 19 -38 -56 0
-12 -19 38 -56 0
-12 -19 -38 56 0
